1111111 AB
390 415 440 465 490 515 540 565 590 615 640 665 690 715 740 765 790 815 840 865 890 915 940 965 990 1015 1040 1065 1090 1115 1140 1165 1190 1215 1240 1265
1111111 BA
406 431 457 482 507 532 557 582 607 632 657 682 707 732 757 782 807 832 857 882 907 932 957 982 1007 1032 1057 1082 1107 1132 1157 1182 1207 1232 1257 1282
